NAME: tsp5_17
COMMENT: 5-tsp problem (Padberg/Rinaldi)
TYPE: TSP
DIMENSION: 5
EDGE_WEIGHT_TYPE : EUC_2D
NODE_COORD_SECTION
1.00 20.34 15.54
2.00 8.32 19.84
3.00 3.12 27.02
4.00 31.37 8.52
5.00 31.89 30.19
